webassembly/ejemplos_dzn/folder9_json_84.dzn
TERM = { '.', 's(5)', 's(2)', 's(4)', 'in_1', 'in_6', 'in_2', 'in_4', 'in_3', 's(1)', 's(0)', 'in_5', 's(3)', 'in_0'};
null = '.';
s = 9;
n = 12;
ndeps = 9;
max_registers_sz = 3;
NR = 0;
registers = [| |];
dependencies = [|'i32.load_0', 'call[function_index(0)]_1', |'call[function_index(0)]_1', 'i32.load8_u_2', |'call[function_index(0)]_1', 'i32.load_3', |'i32.store_4', 'call[function_index(1)]_5', |'call[function_index(1)]_5', 'i32.load8_s_6', |'i32.store_7', 'i32.load8_s_8', |'i32.load8_u_2', 'i32.store_4', |'i32.load_3', 'i32.store_4', |'i32.load8_s_6', 'i32.store_7'|];
GET_ENUM = { GET1, GET2, GET3};
SET_ENUM = { SET1, SET2, SET3};
TEE_ENUM = { TEE1, TEE2, TEE3};
N = 9;
OP = { 'call[function_index(0)]_1', 'call[function_index(1)]_5', 'i32.load_0', 'i32.load8_u_2', 'i32.load_3', 'i32.store_4', 'i32.load8_s_6', 'i32.store_7', 'i32.load8_s_8' };
in_ops = [3, 0, 1, 1, 1, 2, 1, 2, 1 ];
out_ops = [0, 1, 1, 1, 1, 0, 1, 0, 1 ];
in1 = ['s(0)', '.', 'in_0', 'in_3', 's(1)', 's(2)', 's(3)', 's(4)', 'in_6' ];
in2 = ['in_1', '.', '.', '.', '.', 'in_4', '.', 'in_5', '.' ];
in3 = ['in_2', '.', '.', '.', '.', '.', '.', '.', '.' ];
out1 = ['.', 's(3)', 's(0)', 's(1)', 's(2)', '.', 's(4)', '.', 's(5)' ];
out2 = ['.', '.', '.', '.', '.', '.', '.', '.', '.' ];
out3 = ['.', '.', '.', '.', '.', '.', '.', '.', '.' ];
comm = [false, false, false, false, false, false, false, false, false ];
gas = [1, 1, 1, 1, 1, 1, 1, 1, 1 ];
sz = [1, 1, 1, 1, 1, 1, 1, 1, 1 ];
stor = [true, true, false, false, false, true, false, true, false ];
lb = [ 1, 1, 1, 1, 1, 1, 1, 1, 1 ];
ub = [ 9, 9, 9, 9, 9, 9, 9, 9, 9 ];
startstack = [ 'in_0', 'in_1', 'in_2', 'in_3', 'in_4', 'in_5', 'in_6', null, null, null, null, null ];
endstack = [ 's(5)', null, null, null, null, null, null, null, null, null, null, null ];
